Route #1: 0 26 22 27 53 46 48 70 57 58 62 61 60 33 0
Route #2: 0 20 29 30 23 24 44 51 39 68 66 63 59 56 15 17 35 31 32 0
Route #3: 0 5 1 11 36 0
Route #4: 0 9 7 8 4 3 10 6 71 18 13 16 12 2 19 14 64 65 67 69 37 38 40 49 50 47 52 45 43 42 28 21 25 41 55 54 34 0
Cost 370:
